c File: data_files/evolved_graphs/g0214.col
c
c Auto generated graph
c
p edge 100 1271
e 1 3
e 1 10
e 1 11
e 1 12
e 1 13
e 1 15
e 1 16
e 1 17
e 1 18
e 1 19
e 1 20
e 1 22
e 1 27
e 1 32
e 1 33
e 1 34
e 1 35
e 1 36
e 1 39
e 1 40
e 1 41
e 1 42
e 1 43
e 1 44
e 1 45
e 1 46
e 1 47
e 1 48
e 1 49
e 1 50
e 1 51
e 1 52
e 1 53
e 1 60
e 1 63
e 1 66
e 1 67
e 1 68
e 1 69
e 1 70
e 1 71
e 1 72
e 1 73
e 1 74
e 1 75
e 1 76
e 1 77
e 1 78
e 1 80
e 1 81
e 1 83
e 1 89
e 1 92
e 1 98
e 1 99
e 1 100
e 2 3
e 2 4
e 2 10
e 2 11
e 2 12
e 2 13
e 2 14
e 2 15
e 2 16
e 2 17
e 2 18
e 2 19
e 2 20
e 2 32
e 2 33
e 2 34
e 2 35
e 2 36
e 2 37
e 2 38
e 2 39
e 2 40
e 2 41
e 2 42
e 2 43
e 2 44
e 2 45
e 2 46
e 2 48
e 2 51
e 2 52
e 2 53
e 2 54
e 2 60
e 2 62
e 2 63
e 2 64
e 2 65
e 2 66
e 2 67
e 2 69
e 2 70
e 2 71
e 2 72
e 2 73
e 2 74
e 2 75
e 2 76
e 2 77
e 2 78
e 2 79
e 2 80
e 2 83
e 2 89
e 2 94
e 2 98
e 2 99
e 3 5
e 3 13
e 3 14
e 3 15
e 3 16
e 3 17
e 3 18
e 3 20
e 3 22
e 3 24
e 3 25
e 3 32
e 3 33
e 3 34
e 3 36
e 3 37
e 3 38
e 3 39
e 3 40
e 3 41
e 3 42
e 3 43
e 3 44
e 3 45
e 3 46
e 3 47
e 3 48
e 3 49
e 3 50
e 3 51
e 3 52
e 3 53
e 3 62
e 3 64
e 3 65
e 3 66
e 3 67
e 3 68
e 3 69
e 3 70
e 3 71
e 3 72
e 3 73
e 3 74
e 3 75
e 3 76
e 3 77
e 3 78
e 3 80
e 3 81
e 3 90
e 3 92
e 3 94
e 3 98
e 3 99
e 3 100
e 4 11
e 4 12
e 4 13
e 4 15
e 4 16
e 4 17
e 4 18
e 4 20
e 4 24
e 4 26
e 4 32
e 4 34
e 4 36
e 4 37
e 4 38
e 4 39
e 4 40
e 4 41
e 4 42
e 4 43
e 4 44
e 4 45
e 4 46
e 4 48
e 4 49
e 4 50
e 4 51
e 4 52
e 4 53
e 4 54
e 4 55
e 4 56
e 4 57
e 4 58
e 4 98
e 4 99
e 4 100
e 5 7
e 5 11
e 5 12
e 5 13
e 5 14
e 5 15
e 5 17
e 5 18
e 5 19
e 5 20
e 5 26
e 5 27
e 5 28
e 5 32
e 5 33
e 5 34
e 5 35
e 5 36
e 5 37
e 5 38
e 5 40
e 5 41
e 5 42
e 5 43
e 5 44
e 5 45
e 5 46
e 5 47
e 5 48
e 5 49
e 5 50
e 5 51
e 5 52
e 5 53
e 5 94
e 6 14
e 6 21
e 6 22
e 6 24
e 6 28
e 6 30
e 6 32
e 6 33
e 6 34
e 6 35
e 6 36
e 6 37
e 6 38
e 6 39
e 6 40
e 6 41
e 6 42
e 6 44
e 6 45
e 6 46
e 6 47
e 6 48
e 6 49
e 6 50
e 6 51
e 6 52
e 6 53
e 6 93
e 6 95
e 6 97
e 6 100
e 7 14
e 7 17
e 7 18
e 7 20
e 7 23
e 7 24
e 7 27
e 7 32
e 7 33
e 7 34
e 7 35
e 7 36
e 7 37
e 7 38
e 7 39
e 7 40
e 7 41
e 7 42
e 7 45
e 7 46
e 7 47
e 7 48
e 7 49
e 7 50
e 7 52
e 7 53
e 7 54
e 7 55
e 7 56
e 7 57
e 7 58
e 7 93
e 8 9
e 8 14
e 8 20
e 8 21
e 8 25
e 8 27
e 8 30
e 8 37
e 8 38
e 8 39
e 8 40
e 8 41
e 8 42
e 8 43
e 8 44
e 8 45
e 8 46
e 8 47
e 8 48
e 8 49
e 8 50
e 8 51
e 8 52
e 8 53
e 8 54
e 8 55
e 8 56
e 8 57
e 8 58
e 8 92
e 8 93
e 8 98
e 9 14
e 9 20
e 9 32
e 9 37
e 9 38
e 9 39
e 9 40
e 9 41
e 9 42
e 9 43
e 9 44
e 9 47
e 9 48
e 9 49
e 9 50
e 9 51
e 9 52
e 9 53
e 9 54
e 9 55
e 9 56
e 9 57
e 9 58
e 10 14
e 10 20
e 10 23
e 10 29
e 10 37
e 10 39
e 10 40
e 10 41
e 10 52
e 10 53
e 10 54
e 10 55
e 10 56
e 10 57
e 10 58
e 10 91
e 10 93
e 10 99
e 11 14
e 11 29
e 11 30
e 11 37
e 11 38
e 11 39
e 11 40
e 11 41
e 11 52
e 11 53
e 11 54
e 11 55
e 11 56
e 11 57
e 11 58
e 11 100
e 12 14
e 12 15
e 12 22
e 12 25
e 12 28
e 12 31
e 12 37
e 12 38
e 12 40
e 12 41
e 12 52
e 12 53
e 12 54
e 12 55
e 12 56
e 12 57
e 12 58
e 12 63
e 12 98
e 12 99
e 12 100
e 13 14
e 13 24
e 13 28
e 13 37
e 13 38
e 13 39
e 13 40
e 13 41
e 13 42
e 13 43
e 13 44
e 13 45
e 13 46
e 13 48
e 13 49
e 13 52
e 13 53
e 13 54
e 13 55
e 13 56
e 13 57
e 13 58
e 13 94
e 13 98
e 13 99
e 13 100
e 14 29
e 14 37
e 14 38
e 14 39
e 14 40
e 14 41
e 14 42
e 14 43
e 14 44
e 14 45
e 14 46
e 14 47
e 14 49
e 14 52
e 14 53
e 14 54
e 14 55
e 14 56
e 14 57
e 14 58
e 14 74
e 14 98
e 14 100
e 15 23
e 15 26
e 15 37
e 15 38
e 15 39
e 15 40
e 15 41
e 15 42
e 15 43
e 15 44
e 15 45
e 15 51
e 15 52
e 15 53
e 15 54
e 15 55
e 15 56
e 15 57
e 15 58
e 15 87
e 16 24
e 16 29
e 16 37
e 16 38
e 16 39
e 16 40
e 16 41
e 16 42
e 16 43
e 16 44
e 16 49
e 16 52
e 16 53
e 16 54
e 16 55
e 16 56
e 16 57
e 16 58
e 16 86
e 16 98
e 16 100
e 17 18
e 17 23
e 17 37
e 17 38
e 17 39
e 17 40
e 17 41
e 17 42
e 17 43
e 17 44
e 17 46
e 17 47
e 17 52
e 17 53
e 17 54
e 17 55
e 17 56
e 17 57
e 17 58
e 18 27
e 18 37
e 18 38
e 18 39
e 18 41
e 18 42
e 18 43
e 18 44
e 18 45
e 18 46
e 18 47
e 18 48
e 18 49
e 18 50
e 18 51
e 18 52
e 18 53
e 18 54
e 18 56
e 18 57
e 18 58
e 18 94
e 19 29
e 19 31
e 19 37
e 19 38
e 19 39
e 19 40
e 19 42
e 19 43
e 19 44
e 19 45
e 19 46
e 19 47
e 19 48
e 19 49
e 19 50
e 19 51
e 19 52
e 19 53
e 19 54
e 19 55
e 19 56
e 19 57
e 19 58
e 19 94
e 20 24
e 20 37
e 20 38
e 20 39
e 20 40
e 20 41
e 20 42
e 20 43
e 20 44
e 20 45
e 20 46
e 20 47
e 20 48
e 20 49
e 20 50
e 20 51
e 20 52
e 20 53
e 20 54
e 20 55
e 20 56
e 20 57
e 20 58
e 20 82
e 20 100
e 21 25
e 21 26
e 21 27
e 21 28
e 21 37
e 21 38
e 21 39
e 21 40
e 21 41
e 21 42
e 21 44
e 21 45
e 21 46
e 21 47
e 21 48
e 21 49
e 21 50
e 21 51
e 21 52
e 21 53
e 21 55
e 21 56
e 21 57
e 21 58
e 21 91
e 22 25
e 22 26
e 22 27
e 22 28
e 22 37
e 22 38
e 22 39
e 22 40
e 22 41
e 22 42
e 22 43
e 22 45
e 22 46
e 22 47
e 22 48
e 22 49
e 22 50
e 22 51
e 22 52
e 22 53
e 22 55
e 22 56
e 22 57
e 22 58
e 22 89
e 22 91
e 22 98
e 22 100
e 23 25
e 23 26
e 23 27
e 23 28
e 23 37
e 23 38
e 23 39
e 23 40
e 23 41
e 23 42
e 23 43
e 23 44
e 23 45
e 23 47
e 23 48
e 23 49
e 23 50
e 23 51
e 23 52
e 23 53
e 23 55
e 23 56
e 23 57
e 23 58
e 23 63
e 23 91
e 23 92
e 24 25
e 24 26
e 24 27
e 24 28
e 24 37
e 24 38
e 24 39
e 24 40
e 24 41
e 24 42
e 24 43
e 24 44
e 24 45
e 24 46
e 24 47
e 24 48
e 24 49
e 24 50
e 24 51
e 24 52
e 24 53
e 24 55
e 24 56
e 24 57
e 24 58
e 25 29
e 25 54
e 25 55
e 25 56
e 25 57
e 25 58
e 25 91
e 25 92
e 25 96
e 25 100
e 26 54
e 26 55
e 26 56
e 26 57
e 26 58
e 26 99
e 27 30
e 27 54
e 27 55
e 27 56
e 27 57
e 27 58
e 28 54
e 28 55
e 28 56
e 28 57
e 28 58
e 28 98
e 29 54
e 29 55
e 29 56
e 29 57
e 29 58
e 30 54
e 30 55
e 30 56
e 30 57
e 30 58
e 30 61
e 30 98
e 31 54
e 31 55
e 31 56
e 31 57
e 31 58
e 31 67
e 31 99
e 31 100
e 32 36
e 32 37
e 32 39
e 32 40
e 32 43
e 32 47
e 32 50
e 32 51
e 32 54
e 32 55
e 32 56
e 32 57
e 32 58
e 33 37
e 33 40
e 33 42
e 33 43
e 33 46
e 33 47
e 33 51
e 33 52
e 33 54
e 33 55
e 33 56
e 33 57
e 33 58
e 34 37
e 34 41
e 34 42
e 34 43
e 34 45
e 34 49
e 34 51
e 34 52
e 34 53
e 34 54
e 34 55
e 34 56
e 34 57
e 34 58
e 35 39
e 35 41
e 35 44
e 35 45
e 35 46
e 35 47
e 35 49
e 35 53
e 35 54
e 35 55
e 35 56
e 35 57
e 35 58
e 35 91
e 35 92
e 35 93
e 35 94
e 35 95
e 35 96
e 35 97
e 35 98
e 36 54
e 36 55
e 36 56
e 36 57
e 36 58
e 36 91
e 36 92
e 36 93
e 36 94
e 36 95
e 36 96
e 36 97
e 37 54
e 37 55
e 37 56
e 37 57
e 37 58
e 37 91
e 37 92
e 37 93
e 37 94
e 37 95
e 37 96
e 37 97
e 37 98
e 38 54
e 38 55
e 38 56
e 38 58
e 38 63
e 38 91
e 38 92
e 38 93
e 38 94
e 38 95
e 38 99
e 39 54
e 39 55
e 39 56
e 39 57
e 39 58
e 39 91
e 39 92
e 39 93
e 39 94
e 39 96
e 39 97
e 39 98
e 40 54
e 40 55
e 40 56
e 40 57
e 40 58
e 40 98
e 40 99
e 41 54
e 41 55
e 41 56
e 41 57
e 41 58
e 41 98
e 42 54
e 42 55
e 42 56
e 42 57
e 42 58
e 43 98
e 44 70
e 44 100
e 45 99
e 46 98
e 46 99
e 47 62
e 47 76
e 47 98
e 49 60
e 49 99
e 49 100
e 52 67
e 52 98
e 53 88
e 53 99
e 54 55
e 54 78
e 54 80
e 54 81
e 54 83
e 54 87
e 54 88
e 54 89
e 54 90
e 54 91
e 54 92
e 54 93
e 54 96
e 54 98
e 54 99
e 55 78
e 55 79
e 55 80
e 55 81
e 55 84
e 55 87
e 55 92
e 55 93
e 55 94
e 55 95
e 55 96
e 55 98
e 56 78
e 56 80
e 56 81
e 56 83
e 56 84
e 56 85
e 56 87
e 56 94
e 56 98
e 56 99
e 56 100
e 57 78
e 57 83
e 57 84
e 57 85
e 57 86
e 57 88
e 57 89
e 57 92
e 57 94
e 57 95
e 57 96
e 58 78
e 58 81
e 58 86
e 58 88
e 58 89
e 58 92
e 58 93
e 58 95
e 58 96
e 59 78
e 59 79
e 59 80
e 59 84
e 59 89
e 59 90
e 59 93
e 59 95
e 60 78
e 60 79
e 60 84
e 60 85
e 60 86
e 60 87
e 60 88
e 60 89
e 60 96
e 60 97
e 60 98
e 60 99
e 61 78
e 61 79
e 61 80
e 61 82
e 61 83
e 61 84
e 61 85
e 61 87
e 61 91
e 61 93
e 61 94
e 61 95
e 61 97
e 62 78
e 62 80
e 62 81
e 62 82
e 62 84
e 62 87
e 62 88
e 62 90
e 62 91
e 62 93
e 62 96
e 62 99
e 63 78
e 63 80
e 63 84
e 63 86
e 63 87
e 63 88
e 63 89
e 63 90
e 63 91
e 63 92
e 63 93
e 63 96
e 63 99
e 64 78
e 64 80
e 64 81
e 64 82
e 64 84
e 64 85
e 64 87
e 64 88
e 64 93
e 64 97
e 64 98
e 65 78
e 65 79
e 65 80
e 65 84
e 65 86
e 65 87
e 65 89
e 65 91
e 65 96
e 65 100
e 66 78
e 66 80
e 66 81
e 66 84
e 66 85
e 66 86
e 66 87
e 66 88
e 66 89
e 66 90
e 66 91
e 66 94
e 66 95
e 66 96
e 66 97
e 66 100
e 67 78
e 67 80
e 67 81
e 67 82
e 67 83
e 67 84
e 67 85
e 67 86
e 67 87
e 67 88
e 67 89
e 67 91
e 67 92
e 67 93
e 67 95
e 67 96
e 67 100
e 68 78
e 68 79
e 68 81
e 68 82
e 68 84
e 68 85
e 68 88
e 68 89
e 68 90
e 68 91
e 68 92
e 68 94
e 68 95
e 68 99
e 69 78
e 69 79
e 69 80
e 69 83
e 69 84
e 69 85
e 69 87
e 69 89
e 69 91
e 69 94
e 69 95
e 69 96
e 69 97
e 69 98
e 69 99
e 70 78
e 70 79
e 70 81
e 70 82
e 70 83
e 70 87
e 70 88
e 70 89
e 70 96
e 70 97
e 70 99
e 71 78
e 71 79
e 71 80
e 71 81
e 71 82
e 71 84
e 71 85
e 71 87
e 71 88
e 71 89
e 71 90
e 71 91
e 71 94
e 71 96
e 71 98
e 72 78
e 72 79
e 72 80
e 72 81
e 72 82
e 72 86
e 72 88
e 72 91
e 72 93
e 72 95
e 72 97
e 72 98
e 72 99
e 73 78
e 73 79
e 73 81
e 73 85
e 73 88
e 73 91
e 73 94
e 73 96
e 73 98
e 74 78
e 74 81
e 74 84
e 74 85
e 74 87
e 74 90
e 74 93
e 74 96
e 74 97
e 74 98
e 74 99
e 74 100
e 75 78
e 75 80
e 75 81
e 75 85
e 75 90
e 75 94
e 75 97
e 75 100
e 76 78
e 76 80
e 76 85
e 76 86
e 76 87
e 76 93
e 76 95
e 76 100
e 77 78
e 77 79
e 77 80
e 77 82
e 77 83
e 77 84
e 77 85
e 77 86
e 77 88
e 77 94
e 77 95
e 77 100
e 78 80
e 78 82
e 78 83
e 78 84
e 78 86
e 78 87
e 78 92
e 78 93
e 78 95
e 78 97
e 78 100
e 79 83
e 79 84
e 79 85
e 79 86
e 79 87
e 79 88
e 79 89
e 79 90
e 79 91
e 79 92
e 79 93
e 79 94
e 79 95
e 79 96
e 79 97
e 79 98
e 79 99
e 79 100
e 80 83
e 80 84
e 80 85
e 80 86
e 80 87
e 80 88
e 80 89
e 80 90
e 80 91
e 80 92
e 80 93
e 80 94
e 80 95
e 80 96
e 80 97
e 80 98
e 80 99
e 80 100
e 81 83
e 81 84
e 81 85
e 81 86
e 81 87
e 81 88
e 81 89
e 81 90
e 81 91
e 81 92
e 81 93
e 81 94
e 81 95
e 81 96
e 81 97
e 81 98
e 81 99
e 81 100
e 82 83
e 82 84
e 82 85
e 82 86
e 82 87
e 82 88
e 82 89
e 82 90
e 82 91
e 82 92
e 82 93
e 82 94
e 82 95
e 82 96
e 82 97
e 82 98
e 82 99
e 83 97
e 83 98
e 83 99
e 83 100
e 84 97
e 84 98
e 84 99
e 85 96
e 86 94
e 89 91
e 90 100
e 91 96
